Linux optc-04-13 4.15.0-88-generic #88-Ubuntu SMP Tue Feb 11 20:11:34 UTC 2020 x86_64 x86_64 x86_64 GNU/Linux

top - 06:41:57 up 2 days, 17:17,  0 users,  load average: 0,43, 0,85, 0,95
Tasks: 466 gesamt,   1 laufend, 235 schlafend,   0 gestoppt,   0 Zombie
%CPU(s): 16,0 be,  3,7 sy,  0,0 ni, 80,2 un,  0,0 wa,  0,0 hi,  0,0 si,  0,0 st
KiB Spch : 65916192 gesamt, 61950488 frei,   726428 belegt,  3239276 Puff/Cache
KiB Swap:  8388604 gesamt,  8388604 frei,        0 belegt. 64613264 verfü Spch 

  PID USER      PR  NI    VIRT    RES    SHR S  %CPU %MEM     ZEIT+ BEFEHL
28048 bzfhende  20   0   52808   4396   3460 R   5,9  0,0   0:00.03 top
    1 root      20   0  233680   9188   6604 S   0,0  0,0   0:17.07 systemd
    2 root      20   0       0      0      0 S   0,0  0,0   0:00.25 kthreadd
    4 root       0 -20       0      0      0 I   0,0  0,0   0:00.00 kworker/0:+
    5 root      20   0       0      0      0 I   0,0  0,0   0:00.02 kworker/u9+
    7 root       0 -20       0      0      0 I   0,0  0,0   0:00.00 mm_percpu_+
    8 root      20   0       0      0      0 S   0,0  0,0   0:00.22 ksoftirqd/0
    9 root      20   0       0      0      0 I   0,0  0,0   0:45.90 rcu_sched

hard time limit: 00-04:10:00
hard mem limit: 38600

SLURM jobID: 6405111

@01 /nfs/OPTI/bzfhende/instances//./miplib2010_opm2/instances/opm2-z12-s11.mps.gz ===========
-----------------------------
So 8. Mär 06:41:57 CET 2020
-----------------------------
@03 1583646117
@05 7200
SCIP version 7.0.0 [precision: 8 byte] [memory: block] [mode: optimized] [LP solver: CPLEX 12.10.0.0] [GitHash: 297532de76]
Copyright (C) 2002-2020 Konrad-Zuse-Zentrum fuer Informationstechnik Berlin (ZIB)

External codes: 
  Readline 7.0         GNU library for command line editing (gnu.org/s/readline)
  CPLEX 12.10.0.0      Linear Programming Solver developed by IBM (www.cplex.com)
  CppAD 20180000.0     Algorithmic Differentiation of C++ algorithms developed by B. Bell (www.coin-or.org/CppAD)
  ZLIB 1.2.11          General purpose compression library by J. Gailly and M. Adler (zlib.net)
  GMP 6.1.2            GNU Multiple Precision Arithmetic Library developed by T. Granlund (gmplib.org)
  bliss 0.73p          Computing Graph Automorphism Groups by T. Junttila and P. Kaski (http://www.tcs.hut.fi/Software/bliss/)

user parameter file <scip.set> not found - using default parameters

SCIP> 
SCIP> set load /nfs/OPTI/bzfhende/scip-opti/check/../settings/periodic_report.sett
loaded parameter file </nfs/OPTI/bzfhende/scip-opti/check/../settings/periodic_report.set>
SCIP> set limits time 7200
limits/time = 7200
SCIP> set limits nodes 2100000000
limits/nodes = 2100000000
SCIP> set limits memory 35000
limits/memory = 35000
SCIP> set lp advanced threads 1
lp/threads = 1
SCIP> set timing clocktype 1
timing/clocktype = 1
SCIP> set display freq 10000
display/freq = 10000
SCIP> set memory savefac 1.0
memory/savefac = 1
SCIP> set save /nfs/OPTI/bzfhende/scip-opti/check/treesize.prediction.opm2/bzfhennde.instancegroups_opm2.92_opm2-z12-s11.scip.M620v2.periodic_report.set
saved parameter file </nfs/OPTI/bzfhende/scip-opti/check/treesize.prediction.opm2/bzfhende.instancegroups_opm2.92_opm2-z12-s11.scip.M620v2.periodic_report.set>
SCIP> read /nfs/OPTI/bzfhende/instances//./miplib2010_opm2/instances/opm2-z12-s111.mps.gz

read problem </nfs/OPTI/bzfhende/instances//./miplib2010_opm2/instances/opm2-z12-s11.mps.gz>
============

original problem has 10800 variables (10800 bin, 0 int, 0 impl, 0 cont) and 319508 constraints
SCIP> display parameters

number of parameters = 2603
non-default parameter settings:
display/freq = 10000
limits/time = 7200
limits/nodes = 2100000000
limits/memory = 35000
lp/threads = 1
memory/savefac = 1
timing/clocktype = 1
estimation/restarts/restartpolicy = n
estimation/restarts/restartlimit = 0
estimation/reportfreq = 100
estimation/treeprofile/enabled = TRUE

SCIP> optimize

feasible solution found by trivial heuristic after 0.4 seconds, objective value 0.000000e+00
presolving:
(round 1, fast)       380 del vars, 18380 del conss, 0 add conss, 0 chg bounds, 0 chg sides, 0 chg coeffs, 0 upgd conss, 0 impls, 301100 clqs
(round 2, exhaustive) 383 del vars, 18547 del conss, 0 add conss, 0 chg bounds, 0 chg sides, 0 chg coeffs, 300961 upgd conss, 0 impls, 300953 clqs
(round 3, fast)       403 del vars, 19024 del conss, 0 add conss, 0 chg bounds, 0 chg sides, 0 chg coeffs, 300961 upgd conss, 0 impls, 299973 clqs
(round 4, fast)       406 del vars, 19624 del conss, 0 add conss, 0 chg bounds, 0 chg sides, 0 chg coeffs, 300961 upgd conss, 0 impls, 299826 clqs
   (56.6s) probing: 1000/10394 (9.6%) - 0 fixings, 0 aggregations, 348062 implications, 0 bound changes
   (56.6s) probing: 1001/10394 (9.6%) - 0 fixings, 0 aggregations, 348423 implications, 0 bound changes
   (56.6s) probing aborted: 1000/1000 successive useless probings
   (62.5s) symmetry computation started: requiring (bin +, int +, cont +), (fixed: bin -, int -, cont -)
   (62.9s) no symmetry present
presolving (5 rounds: 5 fast, 2 medium, 2 exhaustive):
 406 deleted vars, 19674 deleted constraints, 0 added constraints, 0 tightened bounds, 0 added holes, 0 changed sides, 0 changed coefficients
 0 implications, 648249 cliques
presolved problem has 10394 variables (10394 bin, 0 int, 0 impl, 0 cont) and 299834 constraints
      8 constraints of type <knapsack>
 299826 constraints of type <setppc>
transformed objective value is always integral (scale: 1)
Presolving Time: 62.68
transformed 1/1 original solutions to the transformed problem space

 time | node  | left  |LP iter|LP it/n|mem/heur|mdpt |vars |cons |rows |cuts |sepa|confs|strbr|  dualbound   | primalbound  |  gap   | compl. 
p64.1s|     1 |     0 |     0 |     - |   locks|   0 |  10k| 299k| 299k|   0 |  0 |   1 |   0 |-9.692790e+05 |-1.997500e+04 |4752.46%| unknown
p65.5s|     1 |     0 |     0 |     - | vbounds|   0 |  10k| 299k| 299k|   0 |  0 |   3 |   0 |-9.692790e+05 |-3.406500e+04 |2745.38%| unknown
  149s|     1 |     0 | 55510 |     - |  2424M |   0 |  10k| 299k| 299k|   0 |  0 |   8 |   0 |-9.219646e+04 |-3.406500e+04 | 170.65%| unknown
r 151s|     1 |     0 | 55510 |     - |shifting|   0 |  10k| 299k| 299k|   0 |  0 |   9 |   0 |-9.219646e+04 |-3.420000e+04 | 169.58%| unknown
i 151s|     1 |     0 | 55510 |     - |  oneopt|   0 |  10k| 299k| 299k|   0 |  0 |   9 |   0 |-9.219646e+04 |-3.540700e+04 | 160.39%| unknown
d1972s|     1 |     0 |142472 |     - |farkasdi|   0 |  10k| 299k| 299k|   0 |  2 |   9 |   0 |-9.219646e+04 |-5.311800e+04 |  73.57%| unknown
 3318s|     1 |     0 |197207 |     - |  2524M |   0 |  10k| 299k| 299k|   0 |  2 |  39 |   0 |-9.219646e+04 |-5.311800e+04 |  73.57%| unknown
 3773s|     1 |     2 |197207 |     - |  2541M |   0 |  10k| 299k| 299k|   0 |  4 |  40 |  31 |-9.112639e+04 |-5.311800e+04 |  71.55%| unknown

SCIP Status        : solving was interrupted [time limit reached]
Solving Time (sec) : 7199.99
Solving Nodes      : 28
Primal Bound       : -5.31180000000000e+04 (6 solutions)
Dual Bound         : -8.76385267883334e+04
Gap                : 64.99 %

SCIP> display statistics

SCIP Status        : solving was interrupted [time limit reached]
Total Time         :    7200.94
  solving          :    7199.99
  presolving       :      62.68 (included in solving)
  reading          :       0.95
  copying          :       0.37 (1 #copies) (minimal 0.37, maximal 0.37, average 0.37)
Original Problem   :
  Problem name     : opm2-z12-s11
  Variables        : 10800 (10800 binary, 0 integer, 0 implicit integer, 0 continuous)
  Constraints      : 319508 initial, 319508 maximal
  Objective        : minimize, 10735 non-zeros (abs.min = 1, abs.max = 574)
Presolved Problem  :
  Problem name     : t_opm2-z12-s11
  Variables        : 10394 (10394 binary, 0 integer, 0 implicit integer, 0 continuous)
  Constraints      : 299834 initial, 299894 maximal
  Objective        : minimize, 10330 non-zeros (abs.min = 1, abs.max = 574)
  Nonzeros         : 682784 constraint, 1296504 clique table
Presolvers         :   ExecTime  SetupTime  Calls  FixedVars   AggrVars   ChgTypes  ChgBounds   AddHoles    DelCons    AddCons   ChgSides   ChgCoefs
  boundshift       :       0.00       0.00      0          0          0          0          0          0          0          0          0          0
  convertinttobin  :       0.00       0.00      0          0          0          0          0          0          0          0          0          0
  domcol           :       0.18       0.00      1          0          0          0          0          0          0          0          0          0
  dualagg          :       0.00       0.00      0          0          0          0          0          0          0          0          0          0
  dualcomp         :       0.00       0.00      0          0          0          0          0          0          0          0          0          0
  dualinfer        :       0.00       0.00      0          0          0          0          0          0          0          0          0          0
  dualsparsify     :       5.87       0.00      1          0          0          0          0          0          0          0          0          0
  gateextraction   :       0.00       0.00      0          0          0          0          0          0          0          0          0          0
  implics          :       0.00       0.00      2          0          0          0          0          0          0          0          0          0
  inttobinary      :       0.00       0.00      0          0          0          0          0          0          0          0          0          0
  qpkktref         :       0.00       0.00      0          0          0          0          0          0          0          0          0          0
  redvub           :       0.00       0.00      0          0          0          0          0          0          0          0          0          0
  sparsify         :       0.22       0.00      1          0          0          0          0          0          0          0          0          0
  stuffing         :       0.00       0.00      0          0          0          0          0          0          0          0          0          0
  trivial          :       0.01       0.00      5          0          0          0          0          0          0          0          0          0
  tworowbnd        :       0.20       0.00      1          0          0          0          0          0          0          0          0          0
  dualfix          :       0.01       0.00      5        379          0          0          0          0          0          0          0          0
  genvbounds       :       0.00       0.00      0          0          0          0          0          0          0          0          0          0
  probing          :      49.99       0.00      1          0          0          0          0          0          0          0          0          0
  pseudoobj        :       0.00       0.00      4          0          0          0          0          0          0          0          0          0
  symmetry         :       0.40       0.00      1          0          0          0          0          0          0          0          0          0
  vbounds          :       0.05       0.00      1          0          0          0          0          0          0          0          0          0
  knapsack         :       1.95       0.00      5          0          0          0          0          0          0          0          0          0
  setppc           :       0.92       0.02      5         22          0          0          0          0       1127          0          0          0
  linear           :       2.56       0.08      3          0          5          0          0          0      18547          0          0          0
  logicor          :       0.00       0.00      0          0          0          0          0          0          0          0          0          0
  benders          :       0.00       0.00      0          0          0          0          0          0          0          0          0          0
  components       :       0.09       0.00      1          0          0          0          0          0          0          0          0          0
  root node        :          -          -      -          0          -          -          0          -          -          -          -          -
Constraints        :     Number  MaxNumber  #Separate #Propagate    #EnfoLP    #EnfoRelax  #EnfoPS    #Check   #ResProp    Cutoffs    DomReds       Cuts    Applied      Conss   Children
  benderslp        :          0          0          0          0         26          0          0         13          0          0          0          0          0          0          0
  integral         :          0          0          0          0         26          0          0         13          0          0          2          0          0          1         50
  knapsack         :          8          8          2      29798          0          0          0          8          1         11          0          0          0          0          0
  setppc           :     299826+    299829          2      29777          0          0          0          6      30056          2       4135          0          0          0          0
  linear           :          0+         5          0        284          0          0          0          0          0          2          0          0          0          0          0
  logicor          :          0+        52          2        210          0          0          0          0          0          0          0          0          0          0          0
  benders          :          0          0          0          0          0          0          0          8          0          0          0          0          0          0          0
  countsols        :          0          0          0          0          0          0          0          8          0          0          0          0          0          0          0
  components       :          0          0          0          0          0          0          0          0          0          0          0          0          0          0          0
Constraint Timings :  TotalTime  SetupTime   Separate  Propagate     EnfoLP     EnfoPS     EnfoRelax   Check    ResProp    SB-Prop
  benderslp        :       0.00       0.00       0.00       0.00       0.00       0.00       0.00       0.00       0.00       0.00
  integral         :    2533.56       0.00       0.00       0.00    2533.56       0.00       0.00       0.00       0.00       0.00
  knapsack         :      20.64       0.00      17.86       2.65       0.00       0.00       0.00       0.00       0.01       0.12
  setppc           :      14.52       0.02       0.13      12.67       0.00       0.00       0.00       0.08       0.02       1.60
  linear           :       0.08       0.08       0.00       0.00       0.00       0.00       0.00       0.00       0.00       0.00
  logicor          :       0.00       0.00       0.00       0.00       0.00       0.00       0.00       0.00       0.00       0.00
  benders          :       0.00       0.00       0.00       0.00       0.00       0.00       0.00       0.00       0.00       0.00
  countsols        :       0.00       0.00       0.00       0.00       0.00       0.00       0.00       0.00       0.00       0.00
  components       :       0.02       0.00       0.00       0.02       0.00       0.00       0.00       0.00       0.00       0.00
Propagators        : #Propagate   #ResProp    Cutoffs    DomReds
  dualfix          :          3          0          0          0
  genvbounds       :          0          0          0          0
  nlobbt           :          0          0          0          0
  obbt             :          0          0          0          0
  probing          :          0          0          0          0
  pseudoobj        :        205          0          0          0
  redcost          :         18          0          0          0
  rootredcost      :          1          0          0          0
  symmetry         :          0          0          0          0
  vbounds          :      21931          0          0          0
Propagator Timings :  TotalTime  SetupTime   Presolve  Propagate    ResProp    SB-Prop
  dualfix          :       0.01       0.00       0.01       0.00       0.00       0.00
  genvbounds       :       0.04       0.00       0.00       0.02       0.00       0.02
  nlobbt           :       0.00       0.00       0.00       0.00       0.00       0.00
  obbt             :       0.00       0.00       0.00       0.00       0.00       0.00
  probing          :      49.99       0.00      49.99       0.00       0.00       0.00
  pseudoobj        :       0.20       0.00       0.00       0.20       0.00       0.00
  redcost          :       0.02       0.00       0.00       0.01       0.00       0.01
  rootredcost      :       0.02       0.00       0.00       0.02       0.00       0.00
  symmetry         :       0.42       0.00       0.40       0.02       0.00       0.00
  vbounds          :       0.09       0.00       0.05       0.03       0.00       0.01
Conflict Analysis  :       Time      Calls    Success    DomReds  Conflicts   Literals    Reconvs ReconvLits   Dualrays   Nonzeros   LP Iters   (pool size: [10000,10000])
  propagation      :       0.08         11         11          -        599     1351.7          0        0.0          -          -          -
  infeasible LP    :       0.00          0          0          -          0        0.0          0        0.0          0        0.0          0
  bound exceed. LP :       3.21          9          8          -        193      850.0          0        0.0          5     1213.6        180
  strong branching :       0.00          0          0          -          0        0.0          0        0.0          -          -          0
  pseudo solution  :       0.00          0          0          -          0        0.0          0        0.0          -          -          -
  applied globally :       0.00          -          -          0         74      597.5          -          -          5          -          -
  applied locally  :          -          -          -          0          0        0.0          -          -          0          -          -
Separators         :   ExecTime  SetupTime      Calls    Cutoffs    DomReds       Cuts    Applied      Conss
  cut pool         :       0.00                     0          -          -          0          -          -    (maximal pool size: 0)
  aggregation      :      46.79       0.00          3          0          0          0          0          0
  cgmip            :       0.00       0.00          0          0          0          0          0          0
  clique           :      12.11       0.00          2          0          0          0          0          0
  closecuts        :       0.00       0.00          0          0          0          0          0          0
  cmir             :       0.00       0.00          0          0          0          0          0          0
  convexproj       :       0.00       0.00          0          0          0          0          0          0
  disjunctive      :       0.00       0.00          0          0          0          0          0          0
  eccuts           :       0.00       0.00          0          0          0          0          0          0
  flowcover        :       0.00       0.00          0          0          0          0          0          0
  gauge            :       0.00       0.00          0          0          0          0          0          0
  gomory           :     188.61       0.00          3          0          0          0          0          0
  impliedbounds    :       0.05       0.00          3          0          0          0          0          0
  intobj           :       0.00       0.00          0          0          0          0          0          0
  mcf              :       0.57       0.00          1          0          0          0          0          0
  oddcycle         :       0.00       0.00          0          0          0          0          0          0
  rapidlearning    :       0.04       0.00          0          0          0          0          0          0
  strongcg         :      77.44       0.00          2          0          0          0          0          0
  zerohalf         :      63.16       0.00          3          0          0          0          0          0
Pricers            :   ExecTime  SetupTime      Calls       Vars
  problem variables:       0.00          -          0          0
Branching Rules    :   ExecTime  SetupTime   BranchLP  BranchExt   BranchPS    Cutoffs    DomReds       Cuts      Conss   Children
  allfullstrong    :       0.00       0.00          0          0          0          0          0          0          0          0
  cloud            :       0.00       0.00          0          0          0          0          0          0          0          0
  distribution     :       0.00       0.00          0          0          0          0          0          0          0          0
  fullstrong       :       0.00       0.00          0          0          0          0          0          0          0          0
  inference        :       0.00       0.00          0          0          0          0          0          0          0          0
  leastinf         :       0.00       0.00          0          0          0          0          0          0          0          0
  lookahead        :       0.00       0.00          0          0          0          0          0          0          0          0
  mostinf          :       0.00       0.00          0          0          0          0          0          0          0          0
  multaggr         :       0.00       0.00          0          0          0          0          0          0          0          0
  nodereopt        :       0.00       0.00          0          0          0          0          0          0          0          0
  pscost           :       0.00       0.00          0          0          0          0          0          0          0          0
  random           :       0.00       0.00          0          0          0          0          0          0          0          0
  relpscost        :    2533.56       0.00         26          0          0          0          2          0          2         50
  vanillafullstrong:       0.00       0.00          0          0          0          0          0          0          0          0
Primal Heuristics  :   ExecTime  SetupTime      Calls      Found       Best
  LP solutions     :       0.00          -          -          0          0
  relax solutions  :       0.00          -          -          0          0
  pseudo solutions :       0.00          -          -          0          0
  strong branching :       0.00          -          -          0          0
  actconsdiving    :       0.00       0.00          0          0          0
  adaptivediving   :      79.31       0.00          1          0          0
  alns             :       1.16       0.00          1          0          0
  bound            :       0.00       0.00          0          0          0
  clique           :       0.43       0.00          1          0          0
  coefdiving       :       0.00       0.00          0          0          0
  completesol      :       0.00       0.00          0          0          0
  conflictdiving   :     486.85       0.00          1          0          0
  crossover        :       0.00       0.00          0          0          0
  dins             :       0.00       0.00          0          0          0
  distributiondivin:      89.92       0.00          1          0          0
  dualval          :       0.00       0.00          0          0          0
  farkasdiving     :    1680.84       0.00          1          1          1
  feaspump         :     858.37       0.00          1          0          0
  fixandinfer      :       0.00       0.00          0          0          0
  fracdiving       :       0.00       0.00          0          0          0
  gins             :       0.00       0.00          0          0          0
  guideddiving     :       0.00       0.00          0          0          0
  indicator        :       0.00       0.00          0          0          0
  intdiving        :       0.00       0.00          0          0          0
  intshifting      :       0.00       0.00          0          0          0
  linesearchdiving :       0.00       0.00          0          0          0
  localbranching   :       0.00       0.00          0          0          0
  locks            :       0.52       0.00          1          1          1
  lpface           :       0.00       0.00          0          0          0
  mpec             :       0.00       0.00          0          0          0
  multistart       :       0.00       0.00          0          0          0
  mutation         :       0.00       0.00          0          0          0
  nlpdiving        :       0.00       0.00          0          0          0
  objpscostdiving  :       0.00       0.00          0          0          0
  octane           :       0.00       0.00          0          0          0
  ofins            :       0.00       0.00          0          0          0
  oneopt           :       0.10       0.00          3          1          1
  padm             :       0.00       0.00          0          0          0
  proximity        :       0.00       0.00          0          0          0
  pscostdiving     :      29.05       0.00          1          0          0
  randrounding     :       0.27       0.00          2          0          0
  rens             :       0.00       0.00          0          0          0
  reoptsols        :       0.00       0.00          0          0          0
  repair           :       0.00       0.00          0          0          0
  rins             :       0.00       0.00          0          0          0
  rootsoldiving    :       0.00       0.00          0          0          0
  rounding         :      24.62       0.00         27          0          0
  shiftandpropagate:       0.00       0.00          0          0          0
  shifting         :       3.40       0.00          3          1          1
  simplerounding   :       0.00       0.00         27          0          0
  subnlp           :       0.00       0.00          0          0          0
  trivial          :       0.03       0.00          2          1          1
  trivialnegation  :       0.00       0.00          0          0          0
  trustregion      :       0.00       0.00          0          0          0
  trysol           :       0.00       0.00          0          0          0
  twoopt           :       0.00       0.00          0          0          0
  undercover       :       0.00       0.00          0          0          0
  vbounds          :       3.07       0.00          1          1          1
  veclendiving     :       0.00       0.00          0          0          0
  zeroobj          :       0.00       0.00          0          0          0
  zirounding       :       1.12       0.00         25          0          0
  other solutions  :          -          -          -          0          -
Diving (single)    :      Calls      Nodes   LP Iters Backtracks  Conflicts   MinDepth   MaxDepth   AvgDepth  RoundSols  NLeafSols  MinSolDpt  MaxSolDpt  AvgSolDpt
  actconsdiving    :          0          -          -          -          -          -          -          -          -          -          -          -          -
  coefdiving       :          0          -          -          -          -          -          -          -          -          -          -          -          -
  conflictdiving   :          1         40      21393          2         92         39         39       39.0          0          -          -          -          -
  distributiondivin:          1         22       4480          1          9         28         28       28.0          0          -          -          -          -
  farkasdiving     :          1        677      86962          0          0        678        678      678.0          0          1        678        678      678.0
  fracdiving       :          0          -          -          -          -          -          -          -          -          -          -          -          -
  guideddiving     :          0          -          -          -          -          -          -          -          -          -          -          -          -
  linesearchdiving :          0          -          -          -          -          -          -          -          -          -          -          -          -
  pscostdiving     :          1          5       1914          1         41         22         22       22.0          0          -          -          -          -
  veclendiving     :          0          -          -          -          -          -          -          -          -          -          -          -          -
Diving (adaptive)  :      Calls      Nodes   LP Iters Backtracks  Conflicts   MinDepth   MaxDepth   AvgDepth  RoundSols  NLeafSols  MinSolDpt  MaxSolDpt  AvgSolDpt
  actconsdiving    :          1         33       4651          2         56         37         37       37.0          0          -          -          -          -
  coefdiving       :          0          -          -          -          -          -          -          -          -          -          -          -          -
  conflictdiving   :          0          -          -          -          -          -          -          -          -          -          -          -          -
  distributiondivin:          0          -          -          -          -          -          -          -          -          -          -          -          -
  farkasdiving     :          0          -          -          -          -          -          -          -          -          -          -          -          -
  fracdiving       :          0          -          -          -          -          -          -          -          -          -          -          -          -
  guideddiving     :          0          -          -          -          -          -          -          -          -          -          -          -          -
  linesearchdiving :          0          -          -          -          -          -          -          -          -          -          -          -          -
  pscostdiving     :          0          -          -          -          -          -          -          -          -          -          -          -          -
  veclendiving     :          0          -          -          -          -          -          -          -          -          -          -          -          -
Neighborhoods      :      Calls  SetupTime  SolveTime SolveNodes       Sols       Best       Exp3  EpsGreedy        UCB TgtFixRate  Opt  Inf Node Stal  Sol  Usr Othr Actv
  rens             :          0       0.00       0.00          0          0          0    0.00000   -1.00000    1.00000      0.900    0    0    0    0    0    0    0    1
  rins             :          0       0.00       0.00          0          0          0    0.00000   -1.00000    1.00000      0.900    0    0    0    0    0    0    0    1
  mutation         :          0       0.00       0.00          0          0          0    0.00000   -1.00000    1.00000      0.900    0    0    0    0    0    0    0    1
  localbranching   :          0       0.00       0.00          0          0          0    0.00000   -1.00000    1.00000      0.900    0    0    0    0    0    0    0    1
  crossover        :          0       0.00       0.00          0          0          0    0.00000   -1.00000    1.00000      0.900    0    0    0    0    0    0    0    1
  proximity        :          0       0.00       0.00          0          0          0    0.00000   -1.00000    1.00000      0.900    0    0    0    0    0    0    0    1
  zeroobjective    :          0       0.00       0.00          0          0          0    0.00000   -1.00000    1.00000      0.900    0    0    0    0    0    0    0    1
  dins             :          1       0.58       0.50          0          0          0    0.00000   -1.00000    1.00000      0.700    0    1    0    0    0    0    0    1
  trustregion      :          0       0.00       0.00          0          0          0    0.00000   -1.00000    1.00000      0.900    0    0    0    0    0    0    0    0
LP                 :       Time      Calls Iterations  Iter/call   Iter/sec  Time-0-It Calls-0-It    ItLimit
  primal LP        :       0.00          0          0       0.00          -       0.00          0
  dual LP          :     936.64         30      89832    3208.29      95.91      38.70          2
  lex dual LP      :       0.00          0          0       0.00          -
  barrier LP       :       0.00          0          0       0.00          -       0.00          0
  resolve instable :       0.00          0          0       0.00          -
  diving/probing LP:    3188.21        690     152742     221.37      47.91
  strong branching :    2525.64        203     172300     848.77      68.22          -          -        302
    (at root node) :          -         31      24339     785.13          -
  conflict analysis:       2.91         18        180      10.00      61.86
B&B Tree           :
  number of runs   :          1
  nodes            :         28 (25 internal, 3 leaves)
  feasible leaves  :          0
  infeas. leaves   :          0
  objective leaves :          2
  nodes (total)    :         28 (25 internal, 3 leaves)
  nodes left       :         24
  max depth        :         17
  max depth (total):         17
  backtracks       :          4 (14.3%)
  early backtracks :          0 (0.0%)
  nodes exc. ref.  :          0 (0.0%)
  delayed cutoffs  :          0
  repropagations   :          0 (0 domain reductions, 0 cutoffs)
  avg switch length:       2.61
  switching time   :       0.08
Estim. Tree Size   :      18738
Estimation Tree    : 51 nodes (27 visited, 25 inner, 2 leaves, 24 open), weight: 0.0002 completed 0.0710
Estimations        :      estim      value      trend resolution     smooth
  wbe              :      26213          -          -          -          -
  tree-profile     :         -1          -          -          -          -
  gap              :          5    0.60610    0.50870          1          4
  tree-weight      :      18738    0.00015    0.00011          1      18149
  leaf-frequency   :          5    0.05556    0.47503          1          4
  ssg              :         15    0.88804   -0.14725          1         16
  open-nodes       :         54   24.00000   12.80000          1         48
Root Node          :
  First LP value   : -9.21964566859359e+04
  First LP Iters   :      55510 (682.86 Iter/sec)
  First LP Time    :      81.29
  Final Dual Bound : -9.11263885545834e+04
  Final Root Iters :      55510
  Root LP Estimate : -4.36247724840059e+04
Solution           :
  Solutions found  :          6 (6 improvements)
  First Solution   : +0.00000000000000e+00   (in run 1, after 0 nodes, 0.35 seconds, depth 0, found by <trivial>)
  Gap First Sol.   :   infinite
  Gap Last Sol.    :      73.57 %
  Primal Bound     : -5.31180000000000e+04   (in run 1, after 1 nodes, 1971.85 seconds, depth 678, found by <farkasdiving>)
  Dual Bound       : -8.76385267883334e+04
  Gap              :      64.99 %
Integrals          :      Total       Avg%
  primal-dual      :  340956.39      47.36
  primal-ref       :          -          - (not evaluated)
  dual-ref         :          -          - (not evaluated)

SCIP> checksol

check best solution
solution is feasible in original problem
Violation          :    absolute    relative
  bounds           : 0.00000e+00 0.00000e+00
  integrality      : 0.00000e+00           -
  LP rows          : 0.00000e+00 0.00000e+00
  constraints      : 0.00000e+00 0.00000e+00

SCIP> write sol /local/tmp/bzfhende-tmpdir/bzfhende.instancegroups_opm2.92_opm2-zz12-s11.scip.M620v2.periodic_report.sol

written solution information to file </local/tmp/bzfhende-tmpdir/bzfhende.instancegroups_opm2.92_opm2-z12-s11.scip.M620v2.periodic_report.sol>

SCIP> quit

Read MPS: 1
MIP has 10800 vars and 319508 constraints
Read SOL: 1
Objective value computed by solver: -53118

Integrality tolerance: 1/10000
Linear tolerance: 1/10000
Objective tolerance: 1/10000

Check SOL: Integrality 1 Constraints 1 Objective 1
Maximum violations: Integrality 0 Constraints 0 Objective 0
@04 1583653336
-----------------------------
So 8. Mär 08:42:16 CET 2020
-----------------------------

=ready=
